5 5
4 1 5 18 2 5 15 3 19 1 4 18 1 5 2
6 3 1 7 5 10 3 3 4 5 17 2 11 3 13 1 14 4 3 5 1 18 2 19 5 8 1 2 15 4 4 4 2 11 3 3 1 10 5 1 4 2 10 5 8 3 15 4 18
8 2 4 17 2 9 4 5 14 2 12 3 14 1 14 3 2 6 5 17 3 18 2 3 8 5 17 3 3 3 1 12 4 14 4 4 12 2 11 3 15 1 13 1 2 14 1 3 16
7 5 4 3 2 6 3 13 5 14 1 16 5 2 9 4 14 1 3 5 5 3 19 5 3 12 1 6 5 4 4 12 2 6 4 3 3 2 16 4 14 5 9 5 2 5 3 2 5 9 1 17 4 10 4 2 7 1 7 5 19 4 9 3 4 6 3 17 5 12
7 3 5 7 4 8 2 14 4 4 16 5 20 2 6 1 2 3 2 2 5 18 3 4 1 1 8 4 1 9 5 14 3 20 2 17 3 1 6 4 17 2 17 3 1 19 3 20 2 8